(set-logic QF_S)
(declare-fun var0 () String)
(declare-fun var1 () String)
(declare-fun var2 () Int)
(declare-fun var3 () String)
(declare-fun var4 () String)
(declare-fun var5 () Int)
(declare-fun var6 () Int)
(declare-fun var7 () Int)
(assert (>= (str.indexof var0 var1 var2) (str.indexof var3 var4 var5)))
(assert (< var6 var7))
(assert (> (str.indexof (str.replace var0 var3 var4) (str.substr var1 var5 var2) (str.indexof var3 var0 var2)) (str.indexof var4 var1 var6)))
(assert (str.contains var4 var1))
(check-sat)